<number of tasks>
50

<cycle time>
1000

<order strength>
0.601


<task times>
1 388
2 553
3 467
4 606
5 353
6 395
7 616
8 390
9 450
10 482
11 307
12 714
13 413
14 575
15 510
16 724
17 497
18 456
19 365
20 422
21 384
22 615
23 524
24 305
25 320
26 598
27 468
28 470
29 451
30 345
31 513
32 379
33 649
34 433
35 332
36 661
37 707
38 598
39 455
40 489
41 618
42 715
43 520
44 507
45 494
46 730
47 483
48 527
49 463
50 686

<precedence relations>
1,5
2,6
2,10
2,11
3,7
4,7
5,10
6,9
7,8
7,10
7,11
8,14
9,12
10,13
10,15
10,16
10,17
11,15
11,16
11,17
12,18
13,19
14,20
15,20
15,21
15,22
16,20
16,21
16,22
17,20
17,21
17,22
18,24
19,23
20,24
20,25
20,26
20,27
21,24
21,25
21,26
21,27
22,24
22,25
22,26
22,27
23,28
24,30
25,29
25,32
25,39
26,30
27,30
27,31
28,33
29,35
30,34
30,36
30,37
30,38
30,39
31,39
31,43
32,37
32,38
32,42
33,41
34,40
35,42
36,42
36,44
37,44
37,47
38,43
39,42
39,44
40,47
41,46
42,45
42,47
42,49
43,50
45,48
46,49
47,50

<end>
